c description: Perfect Matching Principle on 
c generator: CNFgen (0.9.0)
c copyright: (C) 2012-2020 Massimo Lauria <massimo.lauria@uniroma1.it>
c url: https://massimolauria.net/cnfgen
c
p cnf 60 254
-1 -2 0
-1 -3 0
-1 -4 0
-1 -5 0
-2 -3 0
-2 -4 0
-2 -5 0
-3 -4 0
-3 -5 0
-4 -5 0
1 2 3 4 5 0
-6 -7 0
-6 -8 0
-6 -9 0
-6 -10 0
-6 -11 0
-6 -12 0
-7 -8 0
-7 -9 0
-7 -10 0
-7 -11 0
-7 -12 0
-8 -9 0
-8 -10 0
-8 -11 0
-8 -12 0
-9 -10 0
-9 -11 0
-9 -12 0
-10 -11 0
-10 -12 0
-11 -12 0
6 7 8 9 10 11 12 0
-6 -13 0
-6 -14 0
-13 -14 0
6 13 14 0
-7 -15 0
-7 -16 0
-15 -16 0
7 15 16 0
-17 -18 0
17 18 0
-19 -20 0
-19 -21 0
-19 -22 0
-19 -23 0
-20 -21 0
-20 -22 0
-20 -23 0
-21 -22 0
-21 -23 0
-22 -23 0
19 20 21 22 23 0
24 0
-8 -25 0
-8 -26 0
-8 -27 0
-8 -28 0
-25 -26 0
-25 -27 0
-25 -28 0
-26 -27 0
-26 -28 0
-27 -28 0
8 25 26 27 28 0
-17 -29 0
-17 -30 0
-17 -31 0
-29 -30 0
-29 -31 0
-30 -31 0
17 29 30 31 0
-32 -33 0
-32 -34 0
-33 -34 0
32 33 34 0
-35 -36 0
35 36 0
-13 -15 0
-13 -29 0
-13 -37 0
-13 -38 0
-15 -29 0
-15 -37 0
-15 -38 0
-29 -37 0
-29 -38 0
-37 -38 0
13 15 29 37 38 0
-19 -32 0
-19 -37 0
-19 -39 0
-19 -40 0
-32 -37 0
-32 -39 0
-32 -40 0
-37 -39 0
-37 -40 0
-39 -40 0
19 32 37 39 40 0
-16 -33 0
-16 -41 0
-16 -42 0
-16 -43 0
-33 -41 0
-33 -42 0
-33 -43 0
-41 -42 0
-41 -43 0
-42 -43 0
16 33 41 42 43 0
-25 -44 0
25 44 0
-39 -45 0
-39 -46 0
-45 -46 0
39 45 46 0
-20 -26 0
-20 -45 0
-20 -47 0
-26 -45 0
-26 -47 0
-45 -47 0
20 26 45 47 0
-9 -47 0
-9 -48 0
-9 -49 0
-47 -48 0
-47 -49 0
-48 -49 0
9 47 48 49 0
-18 -35 0
-18 -41 0
-18 -50 0
-35 -41 0
-35 -50 0
-41 -50 0
18 35 41 50 0
-51 -52 0
-51 -53 0
-52 -53 0
51 52 53 0
-1 -10 0
-1 -54 0
-1 -55 0
-1 -56 0
-10 -54 0
-10 -55 0
-10 -56 0
-54 -55 0
-54 -56 0
-55 -56 0
1 10 54 55 56 0
-2 -11 0
-2 -48 0
-2 -51 0
-2 -57 0
-11 -48 0
-11 -51 0
-11 -57 0
-48 -51 0
-48 -57 0
-51 -57 0
2 11 48 51 57 0
-21 -36 0
-21 -42 0
-21 -50 0
-21 -52 0
-21 -54 0
-21 -58 0
-36 -42 0
-36 -50 0
-36 -52 0
-36 -54 0
-36 -58 0
-42 -50 0
-42 -52 0
-42 -54 0
-42 -58 0
-50 -52 0
-50 -54 0
-50 -58 0
-52 -54 0
-52 -58 0
-54 -58 0
21 36 42 50 52 54 58 0
-22 -44 0
-22 -59 0
-44 -59 0
22 44 59 0
-3 -24 0
-3 -27 0
-3 -38 0
-3 -55 0
-3 -57 0
-3 -60 0
-24 -27 0
-24 -38 0
-24 -55 0
-24 -57 0
-24 -60 0
-27 -38 0
-27 -55 0
-27 -57 0
-27 -60 0
-38 -55 0
-38 -57 0
-38 -60 0
-55 -57 0
-55 -60 0
-57 -60 0
3 24 27 38 55 57 60 0
-4 -23 0
-4 -30 0
-4 -58 0
-23 -30 0
-23 -58 0
-30 -58 0
4 23 30 58 0
-12 -14 0
-12 -31 0
-12 -40 0
-12 -46 0
-12 -53 0
-14 -31 0
-14 -40 0
-14 -46 0
-14 -53 0
-31 -40 0
-31 -46 0
-31 -53 0
-40 -46 0
-40 -53 0
-46 -53 0
12 14 31 40 46 53 0
34 0
-5 -28 0
-5 -43 0
-5 -49 0
-5 -56 0
-5 -59 0
-28 -43 0
-28 -49 0
-28 -56 0
-28 -59 0
-43 -49 0
-43 -56 0
-43 -59 0
-49 -56 0
-49 -59 0
-56 -59 0
5 28 43 49 56 59 0
60 0